100 8
915 474
309 624
351 344
912 392
668 309
322 129
762 212
681 48
153 181
781 741
749 757
285 701
375 664
612 860
656 226
447 65
565 822
529 669
303 743
484 672
540 76
397 722
327 151
322 43
193 175
68 330
614 863
406 73
337 115
320 171
678 755
410 598
895 675
637 248
682 802
411 603
313 573
465 519
388 521
403 288
529 883
636 263
404 603
296 206
756 934
264 680
843 497
336 264
400 194
745 358
793 98
893 155
356 668
597 161
732 774
369 538
864 696
353 617
511 707
469 227
542 604
933 404
774 138
402 245
248 595
717 844
730 214
601 151
435 273
153 216
911 609
363 849
527 114
474 216
259 818
35 222
303 127
888 628
731 262
624 819
166 177
789 531
856 397
890 670
381 678
344 817
417 529
457 260
734 248
388 203
919 194
840 687
728 208
546 192
490 145
600 839
337 568
490 726
286 184
773 899
